100 10
91 82
50 41
16 21
84 80
93 98
94 88
77 72
50 53
8 10
34 34
92 91
63 57
94 96
77 81
16 25
61 54
81 77
6 15
4 9
35 32
20 10
17 14
53 55
62 65
62 56
78 81
56 56
77 83
89 91
42 34
5 13
70 71
95 100
8 8
64 58
9 1
62 55
44 49
89 89
51 48
85 88
76 79
16 10
84 92
11 20
28 22
7 6
1 1
91 95
41 46
80 82
35 40
13 15
76 72
20 13
78 87
21 26
84 81
23 25
18 12
99 100
81 74
49 54
36 43
1 10
65 64
28 26
7 4
95 87
90 86
78 80
13 6
37 28
61 67
47 44
20 19
69 65
30 21
43 39
4 1
20 19
55 52
33 43
7 1
79 73
1 1
57 52
47 37
54 51
40 38
81 76
52 62
33 30
31 25
55 55
92 83
39 42
24 27
82 90
28 25
355 424
593 674
615 730
364 440
362 433
431 498
362 420
398 449
590 718
441 527
